
Gurobi 8.0.1 (win64, Python) logging started 09/07/18 20:00:13

Changed value of parameter lazyConstraints to 1
   Prev: 0  Min: 0  Max: 1  Default: 0
Optimize a model with 441 rows, 422 columns and 1620 nonzeros
Variable types: 402 continuous, 20 integer (20 binary)
Coefficient statistics:
  Matrix range     [1e+00, 1e+03]
  Objective range  [4e-01, 6e-01]
  Bounds range     [1e+00, 1e+00]
  RHS range        [1e+00, 7e+00]
Found heuristic solution: objective 418.8000000
Presolve time: 0.00s
Presolved: 441 rows, 422 columns, 1620 nonzeros
Variable types: 402 continuous, 20 integer (20 binary)

Root relaxation: objective 4.397890e+01, 108 iterations, 0.00 seconds

    Nodes    |    Current Node    |     Objective Bounds      |     Work
 Expl Unexpl |  Obj  Depth IntInf | Incumbent    BestBd   Gap | It/Node Time

     0     0   43.97890    0   20  418.80000   43.97890  89.5%     -    0s
H    0     0                     127.2000000   43.97890  65.4%     -    0s
     0     0   55.74796    0   18  127.20000   55.74796  56.2%     -    0s
H    0     0                     107.6000000   55.74796  48.2%     -    0s
     0     0   57.43017    0   15  107.60000   57.43017  46.6%     -    0s
     0     0   57.94158    0   16  107.60000   57.94158  46.2%     -    0s
     0     0   57.98499    0   16  107.60000   57.98499  46.1%     -    0s
     0     0   58.61311    0   18  107.60000   58.61311  45.5%     -    0s
H    0     0                     100.0000000   58.61311  41.4%     -    0s
     0     0   58.61311    0   18  100.00000   58.61311  41.4%     -    0s
     0     0   58.95506    0   18  100.00000   58.95506  41.0%     -    0s
     0     2   58.95506    0   18  100.00000   58.95506  41.0%     -    0s
*   67    38              11      94.8000000   63.20000  33.3%  18.7    0s
*   68    38              11      92.8000000   63.20000  31.9%  18.5    0s
*  154    25              10      86.8000000   64.33382  25.9%  15.7    0s

Cutting planes:
  Gomory: 11
  MIR: 4
  Flow cover: 3

Explored 371 nodes (5480 simplex iterations) in 0.12 seconds
Thread count was 12 (of 12 available processors)

Solution count 7: 86.8 92.8 94.8 ... 418.8

Optimal solution found (tolerance 1.00e-04)
Best objective 8.680000000000e+01, best bound 8.680000000000e+01, gap 0.0000%
Optimize a model with 442 rows, 422 columns and 1621 nonzeros
Variable types: 402 continuous, 20 integer (20 binary)
Coefficient statistics:
  Matrix range     [8e-01, 1e+03]
  Objective range  [4e-01, 6e-01]
  Bounds range     [1e+00, 1e+00]
  RHS range        [1e+00, 9e+01]

MIP start did not produce a new incumbent solution

Presolve removed 1 rows and 0 columns
Presolve time: 0.00s
Presolved: 441 rows, 422 columns, 1620 nonzeros
Variable types: 402 continuous, 20 integer (20 binary)

Root relaxation: objective 1.090789e+02, 108 iterations, 0.00 seconds

    Nodes    |    Current Node    |     Objective Bounds      |     Work
 Expl Unexpl |  Obj  Depth IntInf | Incumbent    BestBd   Gap | It/Node Time

     0     0  109.07890    0   20          -  109.07890      -     -    0s
H    0     0                     575.6000000  109.07890  81.0%     -    0s
H    0     0                     372.4416930  109.07890  70.7%     -    0s
H    0     0                     371.4000000  109.07890  70.6%     -    0s
     0     0  299.94796    0   18  371.40000  299.94796  19.2%     -    0s
     0     0  301.63017    0   15  371.40000  301.63017  18.8%     -    0s
     0     0  302.14158    0   16  371.40000  302.14158  18.6%     -    0s
     0     0  302.18499    0   16  371.40000  302.18499  18.6%     -    0s
     0     0  302.81311    0   18  371.40000  302.81311  18.5%     -    0s
     0     2  302.81311    0   18  371.40000  302.81311  18.5%     -    0s
H   70    67                     340.6000000  306.16323  10.1%  21.7    1s
H   77    71                     338.2000000  306.16323  9.47%  20.6    1s
*   97    62              12     337.0000000  306.16323  9.15%  18.7    1s
H  139    62                     333.4000000  307.16141  7.87%  17.9    1s
*  352    32              12     331.0000000  315.81486  4.59%  16.8    1s

Cutting planes:
  Gomory: 16
  MIR: 10
  Flow cover: 1
  Lazy constraints: 14

Explored 560 nodes (8751 simplex iterations) in 1.73 seconds
Thread count was 12 (of 12 available processors)

Solution count 8: 331 333.4 337 ... 575.6

Optimal solution found (tolerance 1.00e-04)
Best objective 3.310000000000e+02, best bound 3.310000000000e+02, gap 0.0000%
Changed value of parameter lazyConstraints to 1
   Prev: 0  Min: 0  Max: 1  Default: 0
Optimize a model with 441 rows, 422 columns and 1620 nonzeros
Variable types: 402 continuous, 20 integer (20 binary)
Coefficient statistics:
  Matrix range     [1e+00, 1e+03]
  Objective range  [4e-01, 6e-01]
  Bounds range     [1e+00, 1e+00]
  RHS range        [1e+00, 7e+00]
Found heuristic solution: objective 418.8000000
Presolve time: 0.00s
Presolved: 441 rows, 422 columns, 1620 nonzeros
Variable types: 402 continuous, 20 integer (20 binary)

Root relaxation: objective 4.397890e+01, 108 iterations, 0.00 seconds

    Nodes    |    Current Node    |     Objective Bounds      |     Work
 Expl Unexpl |  Obj  Depth IntInf | Incumbent    BestBd   Gap | It/Node Time

     0     0   43.97890    0   20  418.80000   43.97890  89.5%     -    0s
H    0     0                     127.2000000   43.97890  65.4%     -    0s
     0     0   55.74796    0   18  127.20000   55.74796  56.2%     -    0s
H    0     0                     107.6000000   55.74796  48.2%     -    0s
     0     0   57.43017    0   15  107.60000   57.43017  46.6%     -    0s
     0     0   57.94158    0   16  107.60000   57.94158  46.2%     -    0s
     0     0   57.98499    0   16  107.60000   57.98499  46.1%     -    0s
     0     0   58.61311    0   18  107.60000   58.61311  45.5%     -    0s
H    0     0                     100.0000000   58.61311  41.4%     -    0s
     0     0   58.61311    0   18  100.00000   58.61311  41.4%     -    0s
     0     0   58.95506    0   18  100.00000   58.95506  41.0%     -    0s
     0     2   58.95506    0   18  100.00000   58.95506  41.0%     -    0s
*   67    38              11      94.8000000   63.20000  33.3%  18.7    0s
*   68    38              11      92.8000000   63.20000  31.9%  18.5    0s
*  154    25              10      86.8000000   64.33382  25.9%  15.7    0s

Cutting planes:
  Gomory: 11
  MIR: 4
  Flow cover: 3

Explored 371 nodes (5480 simplex iterations) in 0.12 seconds
Thread count was 12 (of 12 available processors)

Solution count 7: 86.8 92.8 94.8 ... 418.8

Optimal solution found (tolerance 1.00e-04)
Best objective 8.680000000000e+01, best bound 8.680000000000e+01, gap 0.0000%
Optimize a model with 442 rows, 422 columns and 1621 nonzeros
Variable types: 402 continuous, 20 integer (20 binary)
Coefficient statistics:
  Matrix range     [8e-01, 1e+03]
  Objective range  [4e-01, 6e-01]
  Bounds range     [1e+00, 1e+00]
  RHS range        [1e+00, 9e+01]

MIP start did not produce a new incumbent solution

Presolve removed 1 rows and 0 columns
Presolve time: 0.00s
Presolved: 441 rows, 422 columns, 1620 nonzeros
Variable types: 402 continuous, 20 integer (20 binary)

Root relaxation: objective 1.090789e+02, 108 iterations, 0.00 seconds

    Nodes    |    Current Node    |     Objective Bounds      |     Work
 Expl Unexpl |  Obj  Depth IntInf | Incumbent    BestBd   Gap | It/Node Time

     0     0  109.07890    0   20          -  109.07890      -     -    0s
H    0     0                     575.6000000  109.07890  81.0%     -    0s
H    0     0                     372.4416930  109.07890  70.7%     -    0s
H    0     0                     371.4000000  109.07890  70.6%     -    0s
     0     0  299.94796    0   18  371.40000  299.94796  19.2%     -    0s
     0     0  301.63017    0   15  371.40000  301.63017  18.8%     -    0s
     0     0  302.14158    0   16  371.40000  302.14158  18.6%     -    0s
     0     0  302.18499    0   16  371.40000  302.18499  18.6%     -    0s
     0     0  302.81311    0   18  371.40000  302.81311  18.5%     -    0s
     0     2  302.81311    0   18  371.40000  302.81311  18.5%     -    0s
H   70    67                     340.6000000  306.16323  10.1%  21.7    1s
H   77    71                     338.2000000  306.16323  9.47%  20.6    1s
*   97    62              12     337.0000000  306.16323  9.15%  18.7    1s
H  139    62                     333.4000000  307.16141  7.87%  17.9    1s
*  352    32              12     331.0000000  315.81486  4.59%  16.8    1s

Cutting planes:
  Gomory: 16
  MIR: 10
  Flow cover: 1
  Lazy constraints: 14

Explored 560 nodes (8751 simplex iterations) in 1.55 seconds
Thread count was 12 (of 12 available processors)

Solution count 8: 331 333.4 337 ... 575.6

Optimal solution found (tolerance 1.00e-04)
Best objective 3.310000000000e+02, best bound 3.310000000000e+02, gap 0.0000%
Changed value of parameter lazyConstraints to 1
   Prev: 0  Min: 0  Max: 1  Default: 0
Optimize a model with 441 rows, 422 columns and 1620 nonzeros
Variable types: 402 continuous, 20 integer (20 binary)
Coefficient statistics:
  Matrix range     [1e+00, 1e+03]
  Objective range  [4e-01, 6e-01]
  Bounds range     [1e+00, 1e+00]
  RHS range        [1e+00, 7e+00]
Found heuristic solution: objective 418.8000000
Presolve time: 0.00s
Presolved: 441 rows, 422 columns, 1620 nonzeros
Variable types: 402 continuous, 20 integer (20 binary)

Root relaxation: objective 4.397890e+01, 108 iterations, 0.00 seconds

    Nodes    |    Current Node    |     Objective Bounds      |     Work
 Expl Unexpl |  Obj  Depth IntInf | Incumbent    BestBd   Gap | It/Node Time

     0     0   43.97890    0   20  418.80000   43.97890  89.5%     -    0s
H    0     0                     127.2000000   43.97890  65.4%     -    0s
     0     0   55.74796    0   18  127.20000   55.74796  56.2%     -    0s
H    0     0                     107.6000000   55.74796  48.2%     -    0s
     0     0   57.43017    0   15  107.60000   57.43017  46.6%     -    0s
     0     0   57.94158    0   16  107.60000   57.94158  46.2%     -    0s
     0     0   57.98499    0   16  107.60000   57.98499  46.1%     -    0s
     0     0   58.61311    0   18  107.60000   58.61311  45.5%     -    0s
H    0     0                     100.0000000   58.61311  41.4%     -    0s
     0     0   58.61311    0   18  100.00000   58.61311  41.4%     -    0s
     0     0   58.95506    0   18  100.00000   58.95506  41.0%     -    0s
     0     2   58.95506    0   18  100.00000   58.95506  41.0%     -    0s
*   67    38              11      94.8000000   63.20000  33.3%  18.7    0s
*   68    38              11      92.8000000   63.20000  31.9%  18.5    0s
*  154    25              10      86.8000000   64.33382  25.9%  15.7    0s

Cutting planes:
  Gomory: 11
  MIR: 4
  Flow cover: 3

Explored 371 nodes (5480 simplex iterations) in 0.12 seconds
Thread count was 12 (of 12 available processors)

Solution count 7: 86.8 92.8 94.8 ... 418.8

Optimal solution found (tolerance 1.00e-04)
Best objective 8.680000000000e+01, best bound 8.680000000000e+01, gap 0.0000%
Optimize a model with 442 rows, 422 columns and 1621 nonzeros
Variable types: 402 continuous, 20 integer (20 binary)
Coefficient statistics:
  Matrix range     [8e-01, 1e+03]
  Objective range  [4e-01, 6e-01]
  Bounds range     [1e+00, 1e+00]
  RHS range        [1e+00, 9e+01]

MIP start did not produce a new incumbent solution

Presolve removed 1 rows and 0 columns
Presolve time: 0.00s
Presolved: 441 rows, 422 columns, 1620 nonzeros
Variable types: 402 continuous, 20 integer (20 binary)

Root relaxation: objective 1.090789e+02, 108 iterations, 0.00 seconds

    Nodes    |    Current Node    |     Objective Bounds      |     Work
 Expl Unexpl |  Obj  Depth IntInf | Incumbent    BestBd   Gap | It/Node Time

     0     0  109.07890    0   20          -  109.07890      -     -    0s
H    0     0                     575.6000000  109.07890  81.0%     -    0s
H    0     0                     372.4416930  109.07890  70.7%     -    0s
H    0     0                     371.4000000  109.07890  70.6%     -    0s
     0     0  299.94796    0   18  371.40000  299.94796  19.2%     -    0s
     0     0  301.63017    0   15  371.40000  301.63017  18.8%     -    0s
     0     0  302.14158    0   16  371.40000  302.14158  18.6%     -    0s
     0     0  302.18499    0   16  371.40000  302.18499  18.6%     -    0s
     0     0  302.81311    0   18  371.40000  302.81311  18.5%     -    0s
     0     2  302.81311    0   18  371.40000  302.81311  18.5%     -    0s
H   70    67                     340.6000000  306.16323  10.1%  21.7    1s
H   77    71                     338.2000000  306.16323  9.47%  20.6    1s
*   97    62              12     337.0000000  306.16323  9.15%  18.7    1s
H  139    62                     333.4000000  307.16141  7.87%  17.9    1s
*  352    32              12     331.0000000  315.81486  4.59%  16.8    1s

Cutting planes:
  Gomory: 16
  MIR: 10
  Flow cover: 1
  Lazy constraints: 14

Explored 560 nodes (8751 simplex iterations) in 1.53 seconds
Thread count was 12 (of 12 available processors)

Solution count 8: 331 333.4 337 ... 575.6

Optimal solution found (tolerance 1.00e-04)
Best objective 3.310000000000e+02, best bound 3.310000000000e+02, gap 0.0000%
Changed value of parameter Presolve to 0
   Prev: -1  Min: -1  Max: 2  Default: -1
Optimize a model with 441 rows, 421 columns and 1620 nonzeros
Variable types: 401 continuous, 20 integer (20 binary)
Coefficient statistics:
  Matrix range     [1e+00, 1e+03]
  Objective range  [4e-01, 4e-01]
  Bounds range     [1e+00, 1e+00]
  RHS range        [1e+00, 7e+00]
Found heuristic solution: objective 418.8000000
Variable types: 401 continuous, 20 integer (20 binary)

Root relaxation: objective 4.397890e+01, 109 iterations, 0.00 seconds

    Nodes    |    Current Node    |     Objective Bounds      |     Work
 Expl Unexpl |  Obj  Depth IntInf | Incumbent    BestBd   Gap | It/Node Time

     0     0   43.97890    0   20  418.80000   43.97890  89.5%     -    0s
H    0     0                     114.0000000   43.97890  61.4%     -    0s
H    0     0                     102.8000000   43.97890  57.2%     -    0s
     0     0   55.74796    0   18  102.80000   55.74796  45.8%     -    0s
H    0     0                      96.4000000   55.74796  42.2%     -    0s
     0     0   57.43017    0   15   96.40000   57.43017  40.4%     -    0s
     0     0   57.94158    0   16   96.40000   57.94158  39.9%     -    0s
     0     0   57.98499    0   16   96.40000   57.98499  39.8%     -    0s
H    0     0                      86.8000000   57.98499  33.2%     -    0s
     0     0   58.61311    0   18   86.80000   58.61311  32.5%     -    0s
     0     0   58.61311    0   18   86.80000   58.61311  32.5%     -    0s
     0     0   63.20000    0   18   86.80000   63.20000  27.2%     -    0s
     0     0   63.20000    0   16   86.80000   63.20000  27.2%     -    0s
     0     2   63.20000    0   16   86.80000   63.20000  27.2%     -    0s

Cutting planes:
  Gomory: 12
  MIR: 3
  Flow cover: 3

Explored 372 nodes (6427 simplex iterations) in 0.15 seconds
Thread count was 12 (of 12 available processors)

Solution count 5: 86.8 96.4 102.8 ... 418.8

Optimal solution found (tolerance 1.00e-04)
Best objective 8.680000000000e+01, best bound 8.680000000000e+01, gap 0.0000%
Optimize a model with 18081 rows, 8842 columns and 51580 nonzeros
Variable types: 8822 continuous, 20 integer (20 binary)
Coefficient statistics:
  Matrix range     [1e+00, 1e+03]
  Objective range  [4e-01, 6e-01]
  Bounds range     [1e+00, 1e+00]
  RHS range        [1e+00, 7e+00]

Loaded MIP start with objective 410.2

Variable types: 8822 continuous, 20 integer (20 binary)

Root relaxation: objective 2.881789e+02, 1817 iterations, 0.07 seconds

    Nodes    |    Current Node    |     Objective Bounds      |     Work
 Expl Unexpl |  Obj  Depth IntInf | Incumbent    BestBd   Gap | It/Node Time

     0     0  288.17890    0   20  410.20000  288.17890  29.7%     -    0s
H    0     0                     371.4000000  288.17890  22.4%     -    0s
     0     0  299.94796    0   18  371.40000  299.94796  19.2%     -    0s
     0     0  301.63017    0   15  371.40000  301.63017  18.8%     -    0s
     0     0  302.14158    0   16  371.40000  302.14158  18.6%     -    0s
     0     0  302.18499    0   16  371.40000  302.18499  18.6%     -    0s
     0     0  302.81311    0   18  371.40000  302.81311  18.5%     -    0s
     0     0  302.90988    0   18  371.40000  302.90988  18.4%     -    0s
     0     0  302.91805    0   18  371.40000  302.91805  18.4%     -    0s
     0     0  302.92243    0   18  371.40000  302.92243  18.4%     -    0s
     0     0  303.19386    0   18  371.40000  303.19386  18.4%     -    0s
     0     0  303.19478    0   18  371.40000  303.19478  18.4%     -    0s
     0     0  303.19478    0   18  371.40000  303.19478  18.4%     -    1s
     0     0  303.19478    0   18  371.40000  303.19478  18.4%     -    1s
     0     2  303.19478    0   18  371.40000  303.19478  18.4%     -    1s
H   31    34                     347.0000000  308.11387  11.2%   848    3s
H   64    57                     337.8000000  308.11387  8.79%   684    3s
   181    76  322.60000    8   11  337.80000  309.86968  8.27%   470    5s
*  495   116              14     337.4000000  313.00000  7.23%   406    9s
   574   115  335.24426   10    3  337.40000  313.00000  7.23%   404   10s
*  631   108              12     333.4000000  313.00000  6.12%   389   10s
H  673    99                     331.0000000  313.00000  5.44%   380   10s
  1248    34  323.80000   12    7  331.00000  323.00000  2.42%   335   15s

Cutting planes:
  Gomory: 17
  MIR: 14
  Flow cover: 3

Explored 1471 nodes (485283 simplex iterations) in 16.90 seconds
Thread count was 12 (of 12 available processors)

Solution count 7: 331 333.4 337.4 ... 410.2

Optimal solution found (tolerance 1.00e-04)
Best objective 3.310000000000e+02, best bound 3.310000000000e+02, gap 0.0000%
Changed value of parameter Presolve to 0
   Prev: -1  Min: -1  Max: 2  Default: -1
Optimize a model with 4961 rows, 2332 columns and 13410 nonzeros
Variable types: 2122 continuous, 210 integer (210 binary)
Coefficient statistics:
  Matrix range     [1e+00, 1e+03]
  Objective range  [4e-01, 6e-01]
  Bounds range     [1e+00, 1e+00]
  RHS range        [1e+00, 3e+00]
Variable types: 2122 continuous, 210 integer (210 binary)

Root relaxation: objective 3.812134e+02, 1161 iterations, 0.02 seconds

    Nodes    |    Current Node    |     Objective Bounds      |     Work
 Expl Unexpl |  Obj  Depth IntInf | Incumbent    BestBd   Gap | It/Node Time

     0     0  381.21342    0   33          -  381.21342      -     -    0s
H    0     0                     767.8000000  381.21342  50.3%     -    0s
H    0     0                     703.6000000  381.21342  45.8%     -    0s
     0     0  383.89126    0   82  703.60000  383.89126  45.4%     -    0s
     0     0  384.29693    0   82  703.60000  384.29693  45.4%     -    0s
     0     0  384.76031    0   81  703.60000  384.76031  45.3%     -    0s
     0     0  385.12005    0   83  703.60000  385.12005  45.3%     -    0s
     0     0  385.12005    0   83  703.60000  385.12005  45.3%     -    0s
     0     0  385.32781    0   76  703.60000  385.32781  45.2%     -    0s
     0     0  385.39184    0   77  703.60000  385.39184  45.2%     -    0s
     0     0  385.39781    0   76  703.60000  385.39781  45.2%     -    0s
     0     0  385.39781    0   76  703.60000  385.39781  45.2%     -    0s
H    0     0                     634.2000000  385.39781  39.2%     -    0s
     0     0  387.06378    0   77  634.20000  387.06378  39.0%     -    0s
     0     0  387.13574    0   79  634.20000  387.13574  39.0%     -    0s
     0     0  401.91981    0   78  634.20000  401.91981  36.6%     -    0s
     0     0  401.91981    0   79  634.20000  401.91981  36.6%     -    0s
     0     0  401.91981    0   79  634.20000  401.91981  36.6%     -    0s
     0     0  401.91981    0   76  634.20000  401.91981  36.6%     -    0s
     0     0  401.91981    0   76  634.20000  401.91981  36.6%     -    0s
     0     0  401.91981    0   78  634.20000  401.91981  36.6%     -    0s
     0     0  401.91981    0   78  634.20000  401.91981  36.6%     -    0s
     0     0  401.91981    0   78  634.20000  401.91981  36.6%     -    0s
     0     0  401.91981    0   41  634.20000  401.91981  36.6%     -    0s
     0     2  401.91981    0   39  634.20000  401.91981  36.6%     -    0s
*  106    38              18     615.0000000  426.80000  30.6%   157    0s
H  206    57                     605.8000000  438.00000  27.7%   100    0s
*  267    40              28     580.8000000  438.00000  24.6%  78.6    0s
*  293    50              22     580.2000000  438.00000  24.5%  72.3    0s
*  337    51              24     566.4000000  506.80000  10.5%  65.4    0s
*  344    17              27     544.2000000  506.80000  6.87%  64.1    0s

Cutting planes:
  Gomory: 4
  MIR: 6
  Flow cover: 4

Explored 378 nodes (25738 simplex iterations) in 0.70 seconds
Thread count was 12 (of 12 available processors)

Solution count 9: 544.2 566.4 580.2 ... 767.8

Optimal solution found (tolerance 1.00e-04)
Best objective 5.442000000000e+02, best bound 5.442000000000e+02, gap 0.0000%
Changed value of parameter Presolve to 0
   Prev: -1  Min: -1  Max: 2  Default: -1
Optimize a model with 4961 rows, 2332 columns and 13410 nonzeros
Variable types: 2122 continuous, 210 integer (210 binary)
Coefficient statistics:
  Matrix range     [1e+00, 1e+03]
  Objective range  [4e-01, 6e-01]
  Bounds range     [1e+00, 1e+00]
  RHS range        [1e+00, 3e+00]
Variable types: 2122 continuous, 210 integer (210 binary)

Root relaxation: objective 3.812134e+02, 1161 iterations, 0.02 seconds

    Nodes    |    Current Node    |     Objective Bounds      |     Work
 Expl Unexpl |  Obj  Depth IntInf | Incumbent    BestBd   Gap | It/Node Time

     0     0  381.21342    0   33          -  381.21342      -     -    0s
H    0     0                     767.8000000  381.21342  50.3%     -    0s
H    0     0                     703.6000000  381.21342  45.8%     -    0s
     0     0  383.89126    0   82  703.60000  383.89126  45.4%     -    0s
     0     0  384.29693    0   82  703.60000  384.29693  45.4%     -    0s
     0     0  384.76031    0   81  703.60000  384.76031  45.3%     -    0s
     0     0  385.12005    0   83  703.60000  385.12005  45.3%     -    0s
     0     0  385.12005    0   83  703.60000  385.12005  45.3%     -    0s
     0     0  385.32781    0   76  703.60000  385.32781  45.2%     -    0s
     0     0  385.39184    0   77  703.60000  385.39184  45.2%     -    0s
     0     0  385.39781    0   76  703.60000  385.39781  45.2%     -    0s
     0     0  385.39781    0   76  703.60000  385.39781  45.2%     -    0s
H    0     0                     634.2000000  385.39781  39.2%     -    0s
     0     0  387.06378    0   77  634.20000  387.06378  39.0%     -    0s
     0     0  387.13574    0   79  634.20000  387.13574  39.0%     -    0s
     0     0  401.91981    0   78  634.20000  401.91981  36.6%     -    0s
     0     0  401.91981    0   79  634.20000  401.91981  36.6%     -    0s
     0     0  401.91981    0   79  634.20000  401.91981  36.6%     -    0s
     0     0  401.91981    0   76  634.20000  401.91981  36.6%     -    0s
     0     0  401.91981    0   76  634.20000  401.91981  36.6%     -    0s
     0     0  401.91981    0   78  634.20000  401.91981  36.6%     -    0s
     0     0  401.91981    0   78  634.20000  401.91981  36.6%     -    0s
     0     0  401.91981    0   78  634.20000  401.91981  36.6%     -    0s
     0     0  401.91981    0   41  634.20000  401.91981  36.6%     -    0s
     0     2  401.91981    0   39  634.20000  401.91981  36.6%     -    0s
*  106    38              18     615.0000000  426.80000  30.6%   157    0s
H  206    57                     605.8000000  438.00000  27.7%   100    0s
*  267    40              28     580.8000000  438.00000  24.6%  78.6    0s
*  293    50              22     580.2000000  438.00000  24.5%  72.3    0s
*  337    51              24     566.4000000  506.80000  10.5%  65.4    0s
*  344    17              27     544.2000000  506.80000  6.87%  64.1    0s

Cutting planes:
  Gomory: 4
  MIR: 6
  Flow cover: 4

Explored 378 nodes (25738 simplex iterations) in 0.70 seconds
Thread count was 12 (of 12 available processors)

Solution count 9: 544.2 566.4 580.2 ... 767.8

Optimal solution found (tolerance 1.00e-04)
Best objective 5.442000000000e+02, best bound 5.442000000000e+02, gap 0.0000%

Gurobi 8.0.1 (win64, Python) logging started 09/08/18 00:11:42

Changed value of parameter lazyConstraints to 1
   Prev: 0  Min: 0  Max: 1  Default: 0
Optimize a model with 441 rows, 422 columns and 1620 nonzeros
Variable types: 402 continuous, 20 integer (20 binary)
Coefficient statistics:
  Matrix range     [1e+00, 1e+03]
  Objective range  [4e-01, 6e-01]
  Bounds range     [1e+00, 1e+00]
  RHS range        [1e+00, 7e+00]
Found heuristic solution: objective 418.8000000
Presolve time: 0.00s
Presolved: 441 rows, 422 columns, 1620 nonzeros
Variable types: 402 continuous, 20 integer (20 binary)

Root relaxation: objective 4.397890e+01, 108 iterations, 0.00 seconds

    Nodes    |    Current Node    |     Objective Bounds      |     Work
 Expl Unexpl |  Obj  Depth IntInf | Incumbent    BestBd   Gap | It/Node Time

     0     0   43.97890    0   20  418.80000   43.97890  89.5%     -    0s
H    0     0                     127.2000000   43.97890  65.4%     -    0s
     0     0   55.74796    0   18  127.20000   55.74796  56.2%     -    0s
H    0     0                     107.6000000   55.74796  48.2%     -    0s
     0     0   57.43017    0   15  107.60000   57.43017  46.6%     -    0s
     0     0   57.94158    0   16  107.60000   57.94158  46.2%     -    0s
     0     0   57.98499    0   16  107.60000   57.98499  46.1%     -    0s
     0     0   58.61311    0   18  107.60000   58.61311  45.5%     -    0s
H    0     0                     100.0000000   58.61311  41.4%     -    0s
     0     0   58.61311    0   18  100.00000   58.61311  41.4%     -    0s
     0     0   58.95506    0   18  100.00000   58.95506  41.0%     -    0s
     0     2   58.95506    0   18  100.00000   58.95506  41.0%     -    0s
*   67    38              11      94.8000000   63.20000  33.3%  18.7    0s
*   68    38              11      92.8000000   63.20000  31.9%  18.5    0s
*  154    25              10      86.8000000   64.33382  25.9%  15.7    0s

Cutting planes:
  Gomory: 11
  MIR: 4
  Flow cover: 3

Explored 371 nodes (5480 simplex iterations) in 0.12 seconds
Thread count was 12 (of 12 available processors)

Solution count 7: 86.8 92.8 94.8 ... 418.8

Optimal solution found (tolerance 1.00e-04)
Best objective 8.680000000000e+01, best bound 8.680000000000e+01, gap 0.0000%
Optimize a model with 442 rows, 422 columns and 1621 nonzeros
Variable types: 402 continuous, 20 integer (20 binary)
Coefficient statistics:
  Matrix range     [8e-01, 1e+03]
  Objective range  [4e-01, 6e-01]
  Bounds range     [1e+00, 1e+00]
  RHS range        [1e+00, 9e+01]

MIP start did not produce a new incumbent solution

Presolve removed 1 rows and 0 columns
Presolve time: 0.00s
Presolved: 441 rows, 422 columns, 1620 nonzeros
Variable types: 402 continuous, 20 integer (20 binary)

Root relaxation: objective 1.090789e+02, 108 iterations, 0.00 seconds

    Nodes    |    Current Node    |     Objective Bounds      |     Work
 Expl Unexpl |  Obj  Depth IntInf | Incumbent    BestBd   Gap | It/Node Time

     0     0  109.07890    0   20          -  109.07890      -     -    0s
H    0     0                     575.6000000  109.07890  81.0%     -    0s
H    0     0                     372.4416930  109.07890  70.7%     -    0s
H    0     0                     371.4000000  109.07890  70.6%     -    0s
     0     0  299.94796    0   18  371.40000  299.94796  19.2%     -    0s
     0     0  301.63017    0   15  371.40000  301.63017  18.8%     -    0s
     0     0  302.14158    0   16  371.40000  302.14158  18.6%     -    0s
     0     0  302.18499    0   16  371.40000  302.18499  18.6%     -    0s
     0     0  302.81311    0   18  371.40000  302.81311  18.5%     -    0s
     0     2  302.81311    0   18  371.40000  302.81311  18.5%     -    0s
H   70    67                     340.6000000  306.16323  10.1%  21.7    1s
H   77    71                     338.2000000  306.16323  9.47%  20.6    1s
*   97    62              12     337.0000000  306.16323  9.15%  18.7    1s
H  139    62                     333.4000000  307.16141  7.87%  17.9    1s
*  352    32              12     331.0000000  315.81486  4.59%  16.8    1s

Cutting planes:
  Gomory: 16
  MIR: 10
  Flow cover: 1
  Lazy constraints: 14

Explored 560 nodes (8751 simplex iterations) in 1.62 seconds
Thread count was 12 (of 12 available processors)

Solution count 8: 331 333.4 337 ... 575.6

Optimal solution found (tolerance 1.00e-04)
Best objective 3.310000000000e+02, best bound 3.310000000000e+02, gap 0.0000%
